backend/data/formal_work/fv_83726225/fv_83726225_bmc/model/design_smt2.smt2
; SMT-LIBv2 description generated by Yosys 0.63+184 (git sha1 240439bdb-dirty, aarch64-apple-darwin23.5-clang++ 18.1.8 -fPIC -O3)
; yosys-smt2-module formal_wrapper
(declare-sort |formal_wrapper_s| 0)
(declare-fun |formal_wrapper_is| (|formal_wrapper_s|) Bool)
; yosys-smt2-witness {"offset": 0, "path": ["\\_va_past_valid"], "smtname": 0, "smtoffset": 0, "type": "reg", "width": 1}
(declare-fun |formal_wrapper#0| (|formal_wrapper_s|) (_ BitVec 1)) ; \_va_past_valid
; yosys-smt2-register _va_past_valid 1
; yosys-smt2-wire _va_past_valid 1
(define-fun |formal_wrapper_n _va_past_valid| ((state |formal_wrapper_s|)) Bool (= ((_ extract 0 0) (|formal_wrapper#0| state)) #b1))
(declare-fun |formal_wrapper#1| (|formal_wrapper_s|) Bool) ; \clk
; yosys-smt2-input clk 1
; yosys-smt2-wire clk 1
; yosys-smt2-clock clk posedge
; yosys-smt2-witness {"offset": 0, "path": ["\\clk"], "smtname": "clk", "smtoffset": 0, "type": "posedge", "width": 1}
; yosys-smt2-witness {"offset": 0, "path": ["\\clk"], "smtname": "clk", "smtoffset": 0, "type": "input", "width": 1}
(define-fun |formal_wrapper_n clk| ((state |formal_wrapper_s|)) Bool (|formal_wrapper#1| state))
(declare-fun |formal_wrapper#2| (|formal_wrapper_s|) Bool) ; \rst_n
; yosys-smt2-wire reset_n 1
(define-fun |formal_wrapper_n reset_n| ((state |formal_wrapper_s|)) Bool (|formal_wrapper#2| state))
; yosys-smt2-input rst_n 1
; yosys-smt2-wire rst_n 1
; yosys-smt2-witness {"offset": 0, "path": ["\\rst_n"], "smtname": "rst_n", "smtoffset": 0, "type": "input", "width": 1}
(define-fun |formal_wrapper_n rst_n| ((state |formal_wrapper_s|)) Bool (|formal_wrapper#2| state))
(define-fun |formal_wrapper#3| ((state |formal_wrapper_s|)) (_ BitVec 1) (bvnot (ite (|formal_wrapper#1| state) #b1 #b0))) ; $auto$rtlil.cc:3255:Not$201
; yosys-smt2-assume 0 $auto$formalff.cc:987:execute$202
(define-fun |formal_wrapper_u 0| ((state |formal_wrapper_s|)) Bool (or (= ((_ extract 0 0) (|formal_wrapper#3| state)) #b1) (not true))) ; $auto$formalff.cc:987:execute$202
(define-fun |formal_wrapper#4| ((state |formal_wrapper_s|)) Bool (not (or  (|formal_wrapper#2| state) false))) ; $logic_not$formal_wrapper.sv:45$9_Y
(define-fun |formal_wrapper#5| ((state |formal_wrapper_s|)) (_ BitVec 1) (ite (= ((_ extract 0 0) (|formal_wrapper#0| state)) #b1) #b0 #b1)) ; $assume$formal_wrapper.sv:45$8_EN
; yosys-smt2-assume 1 _witness_.check_assume_formal_wrapper_sv_45_8 formal_wrapper.sv:45.13-45.29
(define-fun |formal_wrapper_u 1| ((state |formal_wrapper_s|)) Bool (or (|formal_wrapper#4| state) (not (= ((_ extract 0 0) (|formal_wrapper#5| state)) #b1)))) ; _witness_.check_assume_formal_wrapper_sv_45_8
(define-fun |formal_wrapper_a| ((state |formal_wrapper_s|)) Bool true)
(define-fun |formal_wrapper_u| ((state |formal_wrapper_s|)) Bool (and
  (|formal_wrapper_u 0| state)
  (|formal_wrapper_u 1| state)
))
(define-fun |formal_wrapper_i| ((state |formal_wrapper_s|)) Bool 
  (= (= ((_ extract 0 0) (|formal_wrapper#0| state)) #b1) false) ; _va_past_valid
)
(define-fun |formal_wrapper_h| ((state |formal_wrapper_s|)) Bool true)
(define-fun |formal_wrapper_t| ((state |formal_wrapper_s|) (next_state |formal_wrapper_s|)) Bool 
  (= #b1 (|formal_wrapper#0| next_state)) ; $procdff$192 \_va_past_valid
) ; end of module formal_wrapper
; yosys-smt2-topmod formal_wrapper
; end of yosys output
